Gurobi Optimizer version 9.1.2 build v9.1.2rc0 (linux64)
Thread count: 36 physical cores, 72 logical processors, using up to 32 threads
Optimize a model with 12 rows, 57 columns and 590 nonzeros
Model fingerprint: 0xf32eec78
Model has 47 quadratic constraints
Coefficient statistics:
  Matrix range     [2e-05, 3e+00]
  QMatrix range    [1e+00, 1e+00]
  QLMatrix range   [1e+00, 1e+00]
  Objective range  [8e-03, 7e-01]
  Bounds range     [1e+00, 1e+00]
  RHS range        [1e+00, 1e+00]
Presolve removed 9 rows and 0 columns

Continuous model is non-convex -- solving as a MIP.

Presolve removed 9 rows and 0 columns
Presolve time: 0.00s
Presolved: 189 rows, 57 columns, 443 nonzeros
Presolved model has 47 bilinear constraint(s)
Variable types: 57 continuous, 0 integer (0 binary)

Root relaxation: objective -1.743721e+00, 44 iterations, 0.00 seconds

    Nodes    |    Current Node    |     Objective Bounds      |     Work
 Expl Unexpl |  Obj  Depth IntInf | Incumbent    BestBd   Gap | It/Node Time

     0     0   -1.74372    0   38          -   -1.74372      -     -    0s
H    0     0                       0.6147548   -1.74372   384%     -    0s
     0     0   -1.64739    0    1    0.61475   -1.64739   368%     -    0s
H    0     0                      -1.6450460   -1.64739  0.14%     -    0s
     0     0     cutoff    0        -1.64505   -1.64505  0.00%     -    0s

Cutting planes:
  RLT: 25
  BQP: 3

Explored 1 nodes (76 simplex iterations) in 0.01 seconds
Thread count was 32 (of 72 available processors)

Solution count 2: -1.64505 0.614755 
No other solutions better than -1.64505

Optimal solution found (tolerance 1.00e-04)
Best objective -1.645045978473e+00, best bound -1.645045978473e+00, gap 0.0000%

User-callback calls 77, time in user-callback 0.00 sec
Gurobi Optimizer version 9.1.2 build v9.1.2rc0 (linux64)
Thread count: 36 physical cores, 72 logical processors, using up to 32 threads
Optimize a model with 24 rows, 125 columns and 2580 nonzeros
Model fingerprint: 0x643f5d32
Model has 105 quadratic constraints
Coefficient statistics:
  Matrix range     [4e-06, 5e+01]
  QMatrix range    [1e+00, 1e+00]
  QLMatrix range   [1e+00, 1e+00]
  Objective range  [1e-02, 1e+00]
  Bounds range     [1e+00, 1e+00]
  RHS range        [1e+00, 1e+00]
Presolve removed 10 rows and 0 columns

Continuous model is non-convex -- solving as a MIP.

Presolve removed 10 rows and 0 columns
Presolve time: 0.00s
Presolved: 429 rows, 125 columns, 2142 nonzeros
Presolved model has 105 bilinear constraint(s)
Variable types: 125 continuous, 0 integer (0 binary)

Root relaxation: objective -6.166962e+00, 143 iterations, 0.00 seconds

    Nodes    |    Current Node    |     Objective Bounds      |     Work
 Expl Unexpl |  Obj  Depth IntInf | Incumbent    BestBd   Gap | It/Node Time

     0     0   -6.16696    0   75          -   -6.16696      -     -    0s
H    0     0                       0.0101128   -6.16696      -     -    0s
     0     0   -4.89377    0   83    0.01011   -4.89377      -     -    0s
H    0     0                      -2.2093982   -4.89377   121%     -    0s
     0     0   -4.86858    0   83   -2.20940   -4.86858   120%     -    0s
     0     0   -4.74937    0   33   -2.20940   -4.74937   115%     -    0s
H    0     0                      -2.8270111   -4.74937  68.0%     -    0s
     0     0   -4.72003    0   40   -2.82701   -4.72003  67.0%     -    0s
     0     0   -4.64902    0   48   -2.82701   -4.64902  64.4%     -    0s
     0     0   -4.63909    0   61   -2.82701   -4.63909  64.1%     -    0s
     0     0   -4.62495    0   61   -2.82701   -4.62495  63.6%     -    0s
     0     0   -4.61995    0   61   -2.82701   -4.61995  63.4%     -    0s
     0     0   -4.61696    0   61   -2.82701   -4.61696  63.3%     -    0s
     0     0   -4.61478    0   61   -2.82701   -4.61478  63.2%     -    0s
H    0     0                      -3.3883342   -4.61478  36.2%     -    0s
H    0     0                      -3.8658545   -4.61478  19.4%     -    0s
H    0     0                      -3.9864046   -4.61478  15.8%     -    0s
H    0     0                      -4.0230353   -4.61478  14.7%     -    0s
H    0     0                      -4.0282456   -4.61478  14.6%     -    0s
     0     2   -4.61478    0   61   -4.02825   -4.61478  14.6%     -    0s
*  226   112              11      -4.0286417   -4.05305  0.61%  17.1    0s
*  247   160              12      -4.0479285   -4.05305  0.13%  15.9    0s
*  308   108              15      -4.0482420   -4.05251  0.11%  13.3    0s
*  447    59              14      -4.0482943   -4.05251  0.10%   9.4    0s
*  448    59              14      -4.0483375   -4.05251  0.10%   9.4    0s
*  469    82              15      -4.0497858   -4.05251  0.07%   9.1    0s
*  552    23              15      -4.0498495   -4.05077  0.02%   8.1    0s
*  572    23              17      -4.0498558   -4.05077  0.02%   8.0    0s
*  585    23              16      -4.0498570   -4.05077  0.02%   7.8    0s
*  620     0              16      -4.0498583   -4.04989  0.00%   7.5    0s
*  624     0              17      -4.0498587   -4.04986  0.00%   7.5    0s
*  626     0              17      -4.0498600   -4.04986  0.00%   7.4    0s

Cutting planes:
  RLT: 32
  BQP: 6
  PSD: 9

Explored 634 nodes (5036 simplex iterations) in 0.36 seconds
Thread count was 32 (of 72 available processors)

Solution count 10: -4.04986 -4.04986 -4.04986 ... -4.04824
No other solutions better than -4.04986

Optimal solution found (tolerance 1.00e-04)
Best objective -4.049860029722e+00, best bound -4.049860029722e+00, gap 0.0000%

User-callback calls 1507, time in user-callback 0.00 sec



objective value: -4.049860029722303
objective bound: -4.049860029722303
x_opt: [1.0, 0.0, 1.0, 0.0, 0.14981841703669704, 0.0, 1.0, 1.0, 0.5133969745298513, 0.0, 0.0, 0.0, 0.7038364713914277, 0.0, 0.45200965746689215, 0.29899145089091544, 0.0, 0.0, 0.0, 0.0]
GUROBI solution time: 0.35884785652160645




